(set-logic QF_S)
(declare-fun var_0xINPUT_114244 () String)
(assert (and (= (len var_0xINPUT_114244) 0) (= (len var_0xINPUT_114244) 0) (not (= var_0xINPUT_114244 "Example:")) (not (= var_0xINPUT_114244 "o7E1eVAEe3"))))
(check-sat var_0xINPUT_114244)